 $CONTRL SCFTYP=RHF RUNTYP=HESSIAN 
       ICHARG=0 MULT=1 COORD=ZMTMPC $END
 $BASIS GBASIS=N311 NGAUSS=6 NDFUNC=1 NPFUNC=1 $END
 $DATA
H2O
C1 1
O 0.0000000 0 0.0000000 0 0.0000000 0 0 0 0
H 0.9410842 1 0.0000000 0 0.0000000 0 1 0 0
H 0.9410366 1 105.44962 1 0.0000000 0 1 2 0
 $END

 
