$comment
H2O
$end

$molecule
0 1
O 
H 1 B1
H 1 B2 2 A1

B1 0.940971
B2 0.940971
A1 105.462437
$end

$rem
JOBTYPE FREQ
EXCHANGE HF
CORRELATION NONE
UNRESTRICTED FALSE
BASIS 6-311G**
$end

